(declare-fun var0 () String)
(assert (RegexIn var0 (RegexConcat (RegexUnion (RegexStar (Str2Reg "+")) (RegexUnion (Str2Reg ",") (Str2Reg "--"))) (RegexConcat (RegexStar (RegexUnion (Str2Reg ")))") (Str2Reg "**"))) (RegexConcat (RegexPlus (RegexPlus (Str2Reg "(("))) (RegexConcat (RegexStar (RegexUnion (Str2Reg "&&") (Str2Reg "'''"))) (RegexConcat (RegexStar (RegexPlus (Str2Reg "%"))) (RegexConcat (RegexPlus (RegexUnion (Str2Reg "##") (Str2Reg "$"))) (RegexConcat (RegexPlus (RegexUnion (Str2Reg "!") (Str2Reg "\""))) (RegexConcat (RegexUnion (RegexUnion (Str2Reg "X") (Str2Reg "YYY")) (RegexStar (Str2Reg "ZZZ"))) (RegexConcat (RegexStar (RegexPlus (Str2Reg "WWW"))) (RegexConcat (RegexUnion (RegexStar (Str2Reg "T")) (RegexUnion (Str2Reg "UU") (Str2Reg "VVV"))) (RegexConcat (RegexUnion (RegexUnion (Str2Reg "QQQ") (Str2Reg "RRR")) (RegexStar (Str2Reg "SS"))) (RegexConcat (RegexPlus (RegexPlus (Str2Reg "P"))) (RegexConcat (RegexPlus (RegexUnion (Str2Reg "NN") (Str2Reg "OOO"))) (RegexConcat (RegexStar (RegexUnion (Str2Reg "L") (Str2Reg "M"))) (RegexConcat (RegexStar (RegexPlus (Str2Reg "KKK"))) (RegexConcat (RegexPlus (RegexPlus (Str2Reg "JJJ"))) (RegexConcat (RegexUnion (RegexPlus (Str2Reg "HH")) (RegexPlus (Str2Reg "I"))) (RegexConcat (RegexPlus (RegexStar (Str2Reg "G"))) (RegexConcat (RegexPlus (RegexUnion (Str2Reg "EE") (Str2Reg "FFF"))) (RegexConcat (RegexStar (RegexStar (Str2Reg "DDD"))) (RegexConcat (RegexPlus (RegexPlus (Str2Reg "CCC"))) (RegexConcat (RegexPlus (RegexPlus (Str2Reg "B"))) (RegexConcat (RegexUnion (RegexPlus (Str2Reg "y")) (RegexUnion (Str2Reg "zzz") (Str2Reg "AAA"))) (RegexConcat (RegexStar (RegexPlus (Str2Reg "xx"))) (RegexConcat (RegexStar (RegexUnion (Str2Reg "v") (Str2Reg "w"))) (RegexConcat (RegexPlus (RegexPlus (Str2Reg "uu"))) (RegexConcat (RegexPlus (RegexUnion (Str2Reg "ss") (Str2Reg "tt"))) (RegexConcat (RegexStar (RegexStar (Str2Reg "rr"))) (RegexConcat (RegexUnion (RegexPlus (Str2Reg "ooo")) (RegexUnion (Str2Reg "ppp") (Str2Reg "qq"))) (RegexConcat (RegexUnion (RegexPlus (Str2Reg "mmm")) (RegexStar (Str2Reg "nn"))) (RegexConcat (RegexPlus (RegexUnion (Str2Reg "kk") (Str2Reg "ll"))) (RegexConcat (RegexStar (RegexStar (Str2Reg "jj"))) (RegexConcat (RegexPlus (RegexUnion (Str2Reg "h") (Str2Reg "iii"))) (RegexConcat (RegexUnion (RegexPlus (Str2Reg "ff")) (RegexStar (Str2Reg "gg"))) (RegexConcat (RegexStar (RegexUnion (Str2Reg "dd") (Str2Reg "eee"))) (RegexConcat (RegexPlus (RegexPlus (Str2Reg "ccc"))) (RegexConcat (RegexUnion (RegexStar (Str2Reg "aaa")) (RegexStar (Str2Reg "bbb"))) (RegexConcat (RegexUnion (RegexUnion (Str2Reg "777") (Str2Reg "8")) (RegexPlus (Str2Reg "9"))) (RegexConcat (RegexUnion (RegexPlus (Str2Reg "5")) (RegexStar (Str2Reg "66"))) (RegexConcat (RegexUnion (RegexPlus (Str2Reg "333")) (RegexPlus (Str2Reg "4"))) (RegexConcat (RegexPlus (RegexPlus (Str2Reg "2"))) (RegexConcat (RegexPlus (RegexStar (Str2Reg "1"))) (RegexStar (RegexPlus (Str2Reg "0")))))))))))))))))))))))))))))))))))))))))))))))
(check-sat)